proyfinal/src/viki/013/andrea/andrea-localstore/experimentInOfficeAgust.take6/worker_3/614ee1a8-17cf-42f9-9a29-7cd06f8e6b1b.als.cnf.out
Reading from standard input... Use '--help' for help.
============================[ Problem Statistics ]=============================
|                                                                             |
|  Number of variables:         87638                                         |
|  Number of clauses:          161767                                         |
|  Parse time:                   0.04 s                                       |
|                                                                             |
============================[ Search Statistics ]==============================
| Conflicts |          ORIGINAL         |          LEARNT          | Progress |
|           |    Vars  Clauses Literals |    Limit  Clauses Lit/Cl |          |
===============================================================================
|       100 |   63108   107875   269546 |    39554      100     35 | 27.990 % |
|       250 |   63108   107875   269546 |    43509      250     66 | 27.990 % |
|       475 |   63108   107875   269546 |    47860      475     87 | 27.990 % |
|       812 |   63108   107875   269546 |    52646      812     69 | 27.990 % |
|      1318 |   63108   107875   269546 |    57911     1318     56 | 27.990 % |
|      2077 |   63088   107754   269279 |    63702     2071     55 | 28.013 % |
|      3216 |   63066   107662   269068 |    70072     3208     73 | 28.038 % |
|      4924 |   63066   107662   269068 |    77079     4916     72 | 28.038 % |
|      7486 |   63046   107581   268877 |    84787     7475     87 | 28.061 % |
===============================================================================
restarts              : 44
conflicts             : 9858           (6939 /sec)
decisions             : 44070          (0.00 % random) (31020 /sec)
propagations          : 14437204       (10162014 /sec)
conflict literals     : 868058         (36.70 % deleted)
Memory used           : 32.18 MB
CPU time              : 1.4207 s

INDETERMINATE
